Distance All: 539.29
Capacity Violation: 0
Time Violation: 0
Route Used Num: 7
Visited Customer Num: 25

Route 0 : 
Total Distance: 0	Total Demand: 0	Time Violation: 0	Customer Number: 0	Nodes: 0 0 
Route 1 : 
Total Distance: 0	Total Demand: 0	Time Violation: 0	Customer Number: 0	Nodes: 0 0 
Route 2 : 
Total Distance: 85.9535	Total Demand: 52	Time Violation: 0	Customer Number: 4	Nodes: 0 2 15 22 4 0 
Route 3 : 
Total Distance: 83.7794	Total Demand: 50	Time Violation: 0	Customer Number: 4	Nodes: 0 7 11 19 10 0 
Route 4 : 
Total Distance: 116.219	Total Demand: 49	Time Violation: 0	Customer Number: 4	Nodes: 0 21 23 24 25 0 
Route 5 : 
Total Distance: 0	Total Demand: 0	Time Violation: 0	Customer Number: 0	Nodes: 0 0 
Route 6 : 
Total Distance: 0	Total Demand: 0	Time Violation: 0	Customer Number: 0	Nodes: 0 0 
Route 7 : 
Total Distance: 0	Total Demand: 0	Time Violation: 0	Customer Number: 0	Nodes: 0 0 
Route 8 : 
Total Distance: 0	Total Demand: 0	Time Violation: 0	Customer Number: 0	Nodes: 0 0 
Route 9 : 
Total Distance: 0	Total Demand: 0	Time Violation: 0	Customer Number: 0	Nodes: 0 0 
Route 10 : 
Total Distance: 0	Total Demand: 0	Time Violation: 0	Customer Number: 0	Nodes: 0 0 
Route 11 : 
Total Distance: 79.4751	Total Demand: 65	Time Violation: 0	Customer Number: 4	Nodes: 0 14 16 6 13 0 
Route 12 : 
Total Distance: 0	Total Demand: 0	Time Violation: 0	Customer Number: 0	Nodes: 0 0 
Route 13 : 
Total Distance: 0	Total Demand: 0	Time Violation: 0	Customer Number: 0	Nodes: 0 0 
Route 14 : 
Total Distance: 70.7927	Total Demand: 37	Time Violation: 0	Customer Number: 3	Nodes: 0 8 17 5 0 
Route 15 : 
Total Distance: 0	Total Demand: 0	Time Violation: 0	Customer Number: 0	Nodes: 0 0 
Route 16 : 
Total Distance: 0	Total Demand: 0	Time Violation: 0	Customer Number: 0	Nodes: 0 0 
Route 17 : 
Total Distance: 84.0846	Total Demand: 67	Time Violation: 0	Customer Number: 5	Nodes: 0 12 3 9 20 1 0 
Route 18 : 
Total Distance: 0	Total Demand: 0	Time Violation: 0	Customer Number: 0	Nodes: 0 0 
Route 19 : 
Total Distance: 0	Total Demand: 0	Time Violation: 0	Customer Number: 0	Nodes: 0 0 
Route 20 : 
Total Distance: 31.6228	Total Demand: 12	Time Violation: 0	Customer Number: 1	Nodes: 0 18 0 
Route 21 : 
Total Distance: 0	Total Demand: 0	Time Violation: 0	Customer Number: 0	Nodes: 0 0 
Route 22 : 
Total Distance: 0	Total Demand: 0	Time Violation: 0	Customer Number: 0	Nodes: 0 0 
Route 23 : 
Total Distance: 0	Total Demand: 0	Time Violation: 0	Customer Number: 0	Nodes: 0 0 
Route 24 : 
Total Distance: 0	Total Demand: 0	Time Violation: 0	Customer Number: 0	Nodes: 0 0 
================================================================================= 
Execution Time: 15.443 s 
